(set-info :source  loris-7.ddns.comp.nus.edu.sg/~project/hip/) 
;Variables declarations
(declare-fun v_bool_170_1733_primed () Int)
(declare-fun m () Int)
(declare-fun n () Int)
(declare-fun v_bool_165_1734_primed () Int)
(declare-fun tmp_null_primed () Int)
(declare-fun a_primed () Int)
(declare-fun a () Int)
(declare-fun x_primed () Int)
(declare-fun x () Int)
(declare-fun xval_primed () Int)
(declare-fun Anon_3368 () Int)
(declare-fun xheight_primed () Int)
(declare-fun n_3367 () Int)
(declare-fun p_3369 () Int)
(declare-fun xright_primed () Int)
(declare-fun tmp_primed () Int)
(declare-fun xleft_primed () Int)
(declare-fun m1_3370 () Int)
(declare-fun n1_3371 () Int)
(declare-fun m_3382 () Int)
(declare-fun n_3383 () Int)
(declare-fun n2_3374 () Int)
(declare-fun m2_3373 () Int)
(declare-fun q_3372 () Int)
(declare-fun Anon_3390 () Int)
(declare-fun flted_160_3389 () Int)
(declare-fun res () Int)
;Relations declarations
;Axioms assertions
;Antecedent
(assert (> v_bool_170_1733_primed 0))
(assert (<= a_primed xval_primed))
(assert (= m (+ (+ m2_3373 1) m1_3370)))
(assert (<= (+ 0 n2_3374) (+ n1_3371 1)))
(assert (<= n1_3371 (+ 1 n2_3374)))
(assert (exists ((max_32 Int)) (and (= n (+ 1 max_32)) (or (and (= max_32 n1_3371) (>= n1_3371 n2_3374)) (and (= max_32 n2_3374) (< n1_3371 n2_3374))))))
(assert (= n_3367 n))
(assert (not (> v_bool_165_1734_primed 0)))
(assert (> x_primed 0))
(assert (< tmp_null_primed 1))
(assert (= a_primed a))
(assert (= x_primed x))
(assert (= xval_primed Anon_3368))
(assert (= xheight_primed n_3367))
(assert (= xleft_primed p_3369))
(assert (= xright_primed q_3372))
(assert (= tmp_primed xleft_primed))
(assert (= m_3382 m1_3370))
(assert (= n_3383 n1_3371))
(assert (<= 0 m1_3370))
(assert (<= 0 n1_3371))
(assert (= flted_160_3389 (+ 1 m_3382)))
(assert (<= 0 m_3382))
(assert (<= 0 n_3383))
(assert (or (and (and (< q_3372 1) (= m2_3373 0)) (= n2_3374 0)) (and (and (<= 1 n2_3374) (<= 1 m2_3373)) (> q_3372 0))))
(assert (or (and (and (< res 1) (= flted_160_3389 0)) (= Anon_3390 0)) (and (and (<= 1 Anon_3390) (<= 1 flted_160_3389)) (> res 0))))
;Negation of Consequence
(assert (not false))
(check-sat)